N = 10;
H = 6;
T = 2;

avail = array3d(1..N, 1..H, 1..T, [10, 8, 1, 1, 3, 0, 5, 10, 7, 7, 0, 5, 4, 9, 10, 8, 2, 6, 1, 0, 6, 4, 10, 7, 8, 5, 8, 10, 9, 3, 5, 8, 9, 3, 2, 5, 6, 7, 7, 2, 9, 10, 5, 6, 10, 9, 9, 7, 3, 10, 4, 7, 0, 5, 8, 4, 1, 8, 6, 1, 2, 7, 2, 8, 6, 6, 8, 4, 7, 2, 2, 2, 3, 2, 0, 10, 5, 0, 4, 9, 6, 8, 8, 8, 9, 2, 7, 4, 2, 8, 10, 1, 0, 7, 6, 3, 9, 9, 0, 6, 9, 0, 4, 10, 5, 3, 1, 10, 8, 2, 10, 5, 4, 4, 4, 10, 4, 10, 9, 10]);

r = array2d(1..H, 1..T, [1, 2, 4, 3, 6, 4, 3, 3, 6, 5, 4, 4]);
